
  22    4
  10   10   10   10

   0   0   0   0   0   5 2 3 4 5 6 
   2  10  10  10  10   4 17 10 9 7 
   8  10  10  10  10   3 17 8 7 
   2  10  10  10  10   2 9 7 
   6  10  10  10  10   5 21 17 15 13 12 
   2  10  10  10  10   3 14 11 9 
   4  10  10  10  10   4 21 16 14 11 
   7  10  10  10  10   2 11 9 
  10  10  10  10  10   4 21 19 15 13 
   6  10  10  10  10   4 21 18 14 13 
   5  10  10  10  10   3 19 18 13 
   1  10  10  10  10   2 18 14 
   2  10  10  10  10   1 20 
   9  10  10  10  10   1 19 
   4  10  10  10  10   1 18 
   7  10  10  10  10   1 20 
  10  10  10  10  10   1 18 
   5  10  10  10  10   1 22
   8  10  10  10  10   1 22
   2  10  10  10  10   1 22
   2  10  10  10  10   1 22
   0   0   0   0   0   0 
